1 1 -2 0
1 -1 3 0
1 4 -1 0
1 5 6 0
1 -5 -7 0
1 -6 -8 0
1 9 -10 0
1 9 11 0
1 -9 5 0
1 -12 -13 0
1 14 -12 0
1 7 15 0
1 -7 6 0
1 -7 16 0
1 17 -14 0
1 -17 -7 0
1 -8 -15 0
1 8 18 0
1 -8 -19 0
1 20 -19 0
1 21 22 0
1 23 -20 0
1 -24 25 0
1 26 -27 0
1 26 -25 0
1 -27 24 0
1 -28 -29 0
1 -30 29 0
1 -11 -28 0
1 -31 32 0
1 10 -33 0
1 33 34 0
1 33 -35 0
1 33 36 0
1 25 -37 0
1 34 -33 0
1 -38 -34 0
1 39 -40 0
1 -39 -13 0
1 39 41 0
1 19 36 0
1 -19 -42 0
1 -43 -8 0
1 43 -19 0
1 41 -44 0
1 -36 -33 0
1 45 -10 0
1 46 -47 0
1 46 -23 0
1 48 49 0
1 47 -19 0
1 47 3 0
1 47 -50 0
1 -47 -46 0
1 -51 -52 0
1 -53 -54 0
1 -55 56 0
1 57 58 0
1 59 60 0
1 59 -61 0
1 -59 -62 0
1 59 7 0
1 -59 63 0
1 64 65 0
1 64 62 0
1 64 -66 0
1 64 67 0
1 56 -58 0
1 56 -57 0
1 -58 -68 0
1 -58 57 0
1 -67 -69 0
1 -66 -59 0
1 70 -60 0
1 70 -71 0
1 -70 66 0
1 -71 -72 0
1 73 74 0
1 -69 75 0
1 76 77 0
1 -78 79 0
1 -78 -76 0
1 80 -81 0
1 80 -82 0
1 -83 -84 0
1 85 86 0
1 32 87 0
1 32 88 0
1 35 -87 0
1 88 -78 0
1 -88 89 0
1 -90 -81 0
1 90 91 0
1 -90 -89 0
1 -92 -93 0
1 -40 -28 0
1 -40 92 0
1 -42 -88 0
1 -42 94 0
1 -95 -96 0
1 95 -97 0
1 -98 35 0
1 -98 -99 0
1 94 -100 0
1 -101 -102 0
1 103 102 0
1 104 105 0
1 -106 107 0
1 106 -108 0
1 -102 103 0
1 102 109 0
1 96 -110 0
1 -96 -101 0
1 105 -42 0
1 105 106 0
1 54 -109 0
1 109 41 0
1 109 -55 0
1 -37 104 0
1 -37 111 0
1 37 112 0
1 -37 113 0
1 -108 113 0
1 -114 -115 0
1 114 -116 0
1 -114 -117 0
1 -114 -111 0
1 -50 118 0
1 -119 -118 0
1 119 -120 0
1 112 119 0
1 -112 -37 0
1 -112 -121 0
1 122 -123 0
1 -118 124 0
1 -118 112 0
1 121 -50 0
1 -125 -126 0
1 -125 111 0
1 -127 -128 0
1 -127 -73 0
1 129 122 0
1 -129 130 0
1 129 59 0
1 131 132 0
1 -74 133 0
1 -74 134 0
1 -130 -74 0
1 -128 135 0
1 128 74 0
1 136 -137 0
1 120 138 0
1 72 69 0
1 75 -70 0
1 -139 140 0
1 139 -141 0
1 139 142 0
1 140 139 0
1 -63 -72 0
1 -63 75 0
1 132 131 0
1 -132 -143 0
1 134 -144 0
1 134 145 0
1 134 139 0
1 -68 -72 0
1 -68 -134 0
1 -146 147 0
1 -146 148 0
1 -149 -69 0
1 149 141 0
1 150 -151 0
1 -77 -76 0
1 -152 -153 0
1 154 155 0
1 153 156 0
1 -153 -84 0
1 -153 152 0
1 -153 -157 0
1 158 -159 0
1 84 -154 0
1 84 160 0
1 -156 161 0
1 -156 162 0
1 -156 -163 0
1 -160 -97 0
1 163 -156 0
1 -164 -165 0
1 164 156 0
1 166 152 0
1 166 86 0
1 -81 -167 0
1 81 93 0
1 97 -168 0
1 -161 -97 0
1 -161 169 0
1 -167 170 0
1 171 -172 0
1 -171 173 0
1 -174 175 0
1 174 -94 0
1 100 -168 0
1 176 -94 0
1 -173 169 0
1 -175 174 0
1 177 174 0
1 178 -174 0
1 -178 85 0
1 -179 -180 0
1 181 182 0
1 180 183 0
1 180 -88 0
1 184 -182 0
1 184 -91 0
1 -184 -185 0
1 -186 183 0
1 -186 187 0
1 117 181 0
1 117 188 0
1 -189 102 0
1 -190 107 0
1 -190 181 0
1 191 192 0
1 -191 -133 0
1 188 193 0
1 188 -194 0
1 -195 -196 0
1 -197 -198 0
1 -133 191 0
1 133 -199 0
1 133 -200 0
1 201 -202 0
1 198 197 0
1 -110 115 0
1 -203 -197 0
1 -203 -204 0
1 203 133 0
1 203 -205 0
1 -137 206 0
1 -124 -125 0
1 142 201 0
1 142 206 0
1 142 -207 0
1 202 -201 0
1 -202 -208 0
1 -209 -137 0
1 116 199 0
1 138 -123 0
1 -210 -208 0
1 210 123 0
1 -145 207 0
1 144 -135 0
1 -144 -209 0
1 123 -144 0
1 -123 211 0
1 212 -210 0
1 -212 -213 0
1 212 -211 0
1 212 214 0
1 208 215 0
1 -208 -216 0
1 -208 -213 0
1 -208 -145 0
1 -207 -210 0
1 -207 217 0
1 -207 -125 0
1 -207 145 0
1 214 149 0
1 214 143 0
1 214 123 0
1 -218 219 0
1 135 220 0
1 221 -218 0
1 221 211 0
1 -221 -145 0
1 -222 146 0
1 223 224 0
1 -223 -219 0
1 -225 -135 0
1 -226 222 0
1 -227 -228 0
1 148 -229 0
1 -230 231 0
1 -230 -232 0
1 -233 229 0
1 234 -235 0
1 236 237 0
1 238 -239 0
1 238 77 0
1 240 241 0
1 240 -242 0
1 243 244 0
1 243 -236 0
1 243 245 0
1 -241 236 0
1 -241 246 0
1 237 -240 0
1 -247 -245 0
1 246 248 0
1 -246 158 0
1 246 -249 0
1 244 158 0
1 -244 -241 0
1 -244 246 0
1 250 -251 0
1 250 -242 0
1 -159 243 0
1 -159 -241 0
1 -159 242 0
1 -252 -253 0
1 252 -254 0
1 -252 -255 0
1 239 238 0
1 155 153 0
1 256 -164 0
1 -256 257 0
1 -251 -258 0
1 257 -259 0
1 260 261 0
1 262 263 0
1 -170 -264 0
1 -170 -257 0
1 265 162 0
1 265 -257 0
1 -266 -176 0
1 -264 -158 0
1 264 267 0
1 268 -170 0
1 -269 270 0
1 -269 -178 0
1 269 -162 0
1 -271 -272 0
1 273 -274 0
1 273 275 0
1 -276 267 0
1 277 173 0
1 277 184 0
1 278 -279 0
1 278 -189 0
1 -280 281 0
1 185 281 0
1 -185 280 0
1 -279 -183 0
1 279 -271 0
1 -279 194 0
1 279 -275 0
1 183 282 0
1 -183 195 0
1 183 -181 0
1 183 -188 0
1 194 183 0
1 194 111 0
1 283 -187 0
1 283 -284 0
1 200 -284 0
1 -200 -188 0
1 285 286 0
1 -285 194 0
1 -282 185 0
1 287 -283 0
1 -288 -289 0
1 288 -287 0
1 288 290 0
1 196 187 0
1 -204 -291 0
1 -286 292 0
1 -286 -293 0
1 286 294 0
1 293 -295 0
1 284 -200 0
1 -284 296 0
1 291 -297 0
1 -291 298 0
1 -291 -296 0
1 294 -187 0
1 -294 -299 0
1 -294 290 0
1 -187 286 0
1 300 -201 0
1 296 292 0
1 296 -199 0
1 296 -297 0
1 -296 -301 0
1 297 -292 0
1 297 205 0
1 302 293 0
1 303 -304 0
1 -303 -216 0
1 -303 -99 0
1 303 296 0
1 -292 -297 0
1 292 -296 0
1 -295 305 0
1 -217 -199 0
1 217 299 0
1 -216 -143 0
1 -306 -307 0
1 306 208 0
1 308 -213 0
1 308 -296 0
1 -309 -297 0
1 205 310 0
1 -205 311 0
1 -205 217 0
1 213 -221 0
1 312 -313 0
1 312 301 0
1 -314 307 0
1 314 315 0
1 -316 -317 0
1 -307 318 0
1 -319 -304 0
1 -320 -135 0
1 -320 321 0
1 320 -322 0
1 -320 323 0
1 324 -325 0
1 317 -321 0
1 317 315 0
1 326 -320 0
1 -327 328 0
1 327 -329 0
1 315 -330 0
1 -315 -207 0
1 331 -332 0
1 -331 -333 0
1 -334 -329 0
1 -334 335 0
1 336 325 0
1 -336 337 0
1 336 -338 0
1 336 -335 0
1 -338 339 0
1 340 232 0
1 332 331 0
1 325 324 0
1 -325 334 0
1 231 -233 0
1 -232 231 0
1 -341 -342 0
1 343 -232 0
1 -344 338 0
1 -345 -346 0
1 347 343 0
1 347 348 0
1 -349 346 0
1 350 -341 0
1 -350 -351 0
1 350 -230 0
1 -342 -349 0
1 -342 -345 0
1 342 -341 0
1 -352 353 0
1 -354 355 0
1 -356 357 0
1 353 -358 0
1 -359 -360 0
1 360 361 0
1 360 -237 0
1 362 363 0
1 -361 364 0
1 -361 365 0
1 -361 -255 0
1 366 362 0
1 -367 -362 0
1 245 -363 0
1 -245 -237 0
1 255 368 0
1 255 239 0
1 -369 370 0
1 369 365 0
1 254 253 0
1 254 260 0
1 254 242 0
1 -254 -371 0
1 -253 -254 0
1 372 -373 0
1 261 -368 0
1 261 -374 0
1 -375 -261 0
1 375 376 0
1 -375 377 0
1 -371 237 0
1 -371 -255 0
1 378 -261 0
1 -378 379 0
1 378 380 0
1 -378 381 0
1 -258 264 0
1 -258 -257 0
1 -382 -374 0
1 -383 384 0
1 -385 -386 0
1 385 -387 0
1 -374 388 0
1 389 -379 0
1 389 390 0
1 -389 -258 0
1 389 372 0
1 391 277 0
1 391 385 0
1 392 -384 0
1 392 393 0
1 392 394 0
1 395 259 0
1 -395 -396 0
1 397 -398 0
1 -397 392 0
1 259 395 0
1 -259 392 0
1 399 395 0
1 394 400 0
1 -394 -387 0
1 -401 402 0
1 401 -397 0
1 -403 397 0
1 -404 -200 0
1 405 398 0
1 406 289 0
1 406 401 0
1 406 -403 0
1 407 408 0
1 -407 -409 0
1 407 -398 0
1 -410 268 0
1 289 279 0
1 -289 -406 0
1 411 274 0
1 -411 287 0
1 -412 413 0
1 414 415 0
1 414 416 0
1 414 -417 0
1 -414 418 0
1 -414 -406 0
1 417 419 0
1 -417 -420 0
1 -417 -290 0
1 -421 -270 0
1 -290 -421 0
1 -290 -422 0
1 290 -418 0
1 423 417 0
1 -424 425 0
1 -420 418 0
1 -420 424 0
1 -418 -412 0
1 -418 -426 0
1 427 -412 0
1 427 -414 0
1 427 -299 0
1 428 429 0
1 -428 -430 0
1 -299 295 0
1 426 291 0
1 431 292 0
1 -431 432 0
1 -431 -433 0
1 -431 434 0
1 -433 310 0
1 433 -435 0
1 436 299 0
1 -437 -426 0
1 -437 -424 0
1 438 205 0
1 310 205 0
1 439 -305 0
1 -298 313 0
1 -434 440 0
1 -441 310 0
1 441 442 0
1 -311 -443 0
1 311 309 0
1 444 -307 0
1 444 311 0
1 318 -445 0
1 318 446 0
1 318 447 0
1 -318 -319 0
1 -448 -443 0
1 -448 449 0
1 -445 -447 0
1 -447 333 0
1 -443 -292 0
1 333 316 0
1 -450 -451 0
1 450 330 0
1 -330 -445 0
1 -330 450 0
1 -446 452 0
1 446 328 0
1 -446 333 0
1 -453 454 0
1 -453 -455 0
1 -453 -330 0
1 456 450 0
1 457 205 0
1 328 325 0
1 328 446 0
1 -328 458 0
1 -455 325 0
1 455 446 0
1 455 459 0
1 -455 460 0
1 -459 453 0
1 -451 461 0
1 -462 -328 0
1 -462 -459 0
1 -462 463 0
1 -458 -330 0
1 464 -450 0
1 -348 -337 0
1 465 466 0
1 467 -468 0
1 -467 -455 0
1 -467 469 0
1 469 -470 0
1 469 459 0
1 -466 -471 0
1 466 -465 0
1 466 472 0
1 -460 -473 0
1 -468 -474 0
1 -468 342 0
1 -475 -339 0
1 -476 350 0
1 -477 -350 0
1 477 476 0
1 -478 -471 0
1 -479 351 0
1 479 -477 0
1 479 478 0
1 -480 474 0
1 480 477 0
1 -480 -472 0
1 -474 -325 0
1 474 -475 0
1 481 351 0
1 -481 -478 0
1 351 -350 0
1 -482 483 0
1 -482 484 0
1 482 485 0
1 -486 -487 0
1 486 477 0
1 486 481 0
1 -485 -351 0
1 485 488 0
1 -489 -482 0
1 -487 490 0
1 -491 -484 0
1 -491 -492 0
1 -492 487 0
1 -493 494 0
1 -490 -491 0
1 -364 495 0
1 364 367 0
1 364 -496 0
1 -497 -358 0
1 -497 -498 0
1 499 355 0
1 499 -498 0
1 -355 -499 0
1 355 500 0
1 495 356 0
1 495 501 0
1 495 -355 0
1 -502 -503 0
1 -501 355 0
1 504 355 0
1 500 -381 0
1 381 505 0
1 -381 -506 0
1 -381 -371 0
1 498 497 0
1 507 -381 0
1 506 -497 0
1 -505 -504 0
1 505 508 0
1 505 381 0
1 377 509 0
1 377 510 0
1 -377 -392 0
1 511 507 0
1 511 -376 0
1 511 498 0
1 388 507 0
1 -388 -512 0
1 512 -363 0
1 512 379 0
1 512 -388 0
1 510 -379 0
1 -513 -508 0
1 513 511 0
1 -509 -508 0
1 509 -511 0
1 402 -399 0
1 402 -376 0
1 -387 -514 0
1 -387 376 0
1 400 386 0
1 -515 516 0
1 515 376 0
1 -515 -517 0
1 515 394 0
1 -518 -519 0
1 -518 520 0
1 376 -409 0
1 514 388 0
1 -380 -378 0
1 -520 521 0
1 520 -407 0
1 409 522 0
1 409 410 0
1 523 -400 0
1 -523 386 0
1 523 -524 0
1 516 521 0
1 517 -409 0
1 -517 389 0
1 -517 -524 0
1 408 525 0
1 -408 526 0
1 425 413 0
1 527 523 0
1 -527 420 0
1 527 -528 0
1 -529 430 0
1 529 -425 0
1 -530 -526 0
1 530 -425 0
1 -525 -425 0
1 531 -532 0
1 430 -428 0
1 419 -533 0
1 534 432 0
1 534 533 0
1 432 -535 0
1 -432 536 0
1 528 -429 0
1 -537 -430 0
1 -533 419 0
1 533 -410 0
1 -533 430 0
1 -429 -528 0
1 -429 418 0
1 538 -427 0
1 538 528 0
1 -538 -437 0
1 539 540 0
1 539 537 0
1 -540 310 0
1 -540 541 0
1 540 -539 0
1 542 -440 0
1 -535 -429 0
1 536 -534 0
1 -536 -543 0
1 -544 -545 0
1 544 413 0
1 -442 -546 0
1 -442 -545 0
1 442 434 0
1 -440 -542 0
1 547 -548 0
1 547 -549 0
1 -547 -550 0
1 -551 541 0
1 551 434 0
1 550 546 0
1 550 -539 0
1 550 -552 0
1 546 -553 0
1 -554 -555 0
1 554 -439 0
1 552 449 0
1 -552 -434 0
1 -556 557 0
1 435 -558 0
1 -435 559 0
1 -548 547 0
1 -548 -560 0
1 561 562 0
1 561 -563 0
1 -559 562 0
1 -559 564 0
1 564 548 0
1 565 -456 0
1 -565 548 0
1 565 566 0
1 560 435 0
1 -567 452 0
1 567 -439 0
1 -568 569 0
1 568 570 0
1 -566 -560 0
1 -557 571 0
1 557 558 0
1 -557 441 0
1 557 572 0
1 -570 573 0
1 -570 464 0
1 -574 575 0
1 -576 577 0
1 -576 -578 0
1 579 580 0
1 579 560 0
1 -581 569 0
1 -578 451 0
1 -575 576 0
1 -582 -576 0
1 -454 583 0
1 -454 -584 0
1 472 573 0
1 -472 -585 0
1 -472 -480 0
1 586 474 0
1 -586 472 0
1 587 -588 0
1 -483 480 0
1 483 -589 0
1 -585 586 0
1 590 584 0
1 591 478 0
1 -591 -485 0
1 592 474 0
1 593 -485 0
1 589 -483 0
1 589 591 0
1 594 595 0
1 -596 -597 0
1 598 599 0
1 600 601 0
1 602 514 0
1 602 -522 0
1 602 -603 0
1 602 -604 0
1 -605 -594 0
1 606 -607 0
1 -606 -380 0
1 606 -517 0
1 -519 603 0
1 -519 -601 0
1 608 -609 0
1 608 610 0
1 608 611 0
1 -612 609 0
1 612 -604 0
1 -611 613 0
1 611 -614 0
1 -615 606 0
1 -615 616 0
1 -615 -613 0
1 -615 524 0
1 -604 522 0
1 604 -607 0
1 -604 617 0
1 -604 -608 0
1 607 -522 0
1 524 618 0
1 524 611 0
1 619 525 0
1 -619 -616 0
1 -620 -621 0
1 -620 -622 0
1 -620 -623 0
1 -622 620 0
1 -622 -624 0
1 -622 -608 0
1 609 625 0
1 -609 612 0
1 626 538 0
1 626 529 0
1 -627 628 0
1 -627 629 0
1 630 -620 0
1 630 -631 0
1 -630 532 0
1 -630 -629 0
1 628 -632 0
1 -628 -545 0
1 -628 -633 0
1 633 -628 0
1 633 634 0
1 -635 -630 0
1 -635 -636 0
1 -545 -537 0
1 637 -528 0
1 -638 -639 0
1 -638 640 0
1 638 -633 0
1 -639 641 0
1 639 -638 0
1 -629 642 0
1 641 -639 0
1 -532 545 0
1 532 643 0
1 -555 -644 0
1 -645 629 0
1 -646 -562 0
1 640 647 0
1 640 648 0
1 -640 543 0
1 -644 -533 0
1 -562 649 0
1 562 650 0
1 -651 -646 0
1 651 -652 0
1 -563 -653 0
1 -563 -560 0
1 563 -650 0
1 654 -655 0
1 654 645 0
1 -654 -542 0
1 649 535 0
1 649 656 0
1 657 -658 0
1 659 647 0
1 -659 660 0
1 -659 -648 0
1 -558 -566 0
1 -661 -553 0
1 571 649 0
1 571 -662 0
1 -663 -557 0
1 663 566 0
1 -553 664 0
1 553 -558 0
1 -553 -661 0
1 -653 -665 0
1 572 666 0
1 -572 -656 0
1 667 -668 0
1 -667 669 0
1 -667 -581 0
1 670 572 0
1 671 569 0
1 -666 -664 0
1 -666 -672 0
1 673 -581 0
1 -673 -670 0
1 674 -675 0
1 -676 -677 0
1 -668 678 0
1 677 568 0
1 677 679 0
1 -677 673 0
1 -680 -667 0
1 -669 674 0
1 669 667 0
1 669 -681 0
1 -669 676 0
1 -584 677 0
1 679 -682 0
1 -679 -590 0
1 683 -682 0
1 683 679 0
1 684 -685 0
1 -684 686 0
1 684 603 0
1 617 -685 0
1 617 -687 0
1 617 -688 0
1 686 -684 0
1 614 -686 0
1 -614 687 0
1 625 614 0
1 625 604 0
1 689 610 0
1 -690 691 0
1 -690 -623 0
1 -692 689 0
1 -687 -693 0
1 -687 692 0
1 623 609 0
1 621 690 0
1 694 695 0
1 -694 696 0
1 697 -639 0
1 697 624 0
1 696 698 0
1 699 698 0
1 699 -696 0
1 -699 700 0
1 701 -702 0
1 701 -703 0
1 704 -702 0
1 -705 635 0
1 705 -696 0
1 -706 -707 0
1 -708 -694 0
1 624 622 0
1 -709 706 0
1 -709 710 0
1 -711 -697 0
1 -711 712 0
1 652 -651 0
1 -713 -714 0
1 632 715 0
1 632 706 0
1 -632 -660 0
1 -632 700 0
1 -634 -660 0
1 716 -717 0
1 647 -640 0
1 647 718 0
1 647 719 0
1 -658 640 0
1 -720 659 0
1 -720 721 0
1 -720 -722 0
1 720 -714 0
1 -660 723 0
1 -714 -655 0
1 714 647 0
1 714 665 0
1 714 656 0
1 -714 713 0
1 724 725 0
1 -724 720 0
1 724 726 0
1 -718 715 0
1 -655 -657 0
1 -655 -654 0
1 656 723 0
1 656 -659 0
1 -656 572 0
1 656 727 0
1 728 729 0
1 728 665 0
1 665 728 0
1 -665 730 0
1 -722 -665 0
1 -722 646 0
1 722 660 0
1 722 731 0
1 721 -732 0
1 -732 655 0
1 733 662 0
1 -675 -653 0
1 -675 553 0
1 675 666 0
1 675 671 0
1 734 735 0
1 734 736 0
1 -736 -737 0
1 738 -729 0
1 729 738 0
1 -739 -733 0
1 735 740 0
1 -735 -675 0
1 735 -739 0
1 -681 -670 0
1 741 742 0
1 -743 672 0
1 742 -737 0
1 744 701 0
1 745 -746 0
1 747 -704 0
1 -703 -748 0
1 -748 744 0
1 -749 698 0
1 -750 751 0
1 -746 -750 0
1 698 -699 0
1 698 -748 0
1 698 752 0
1 -752 -704 0
1 -710 -753 0
1 753 754 0
1 753 710 0
1 691 -712 0
1 691 752 0
1 755 712 0
1 -755 -698 0
1 -755 -752 0
1 -717 709 0
1 -717 756 0
1 717 -624 0
1 -717 753 0
1 754 691 0
1 -754 -757 0
1 -758 -759 0
1 759 -760 0
1 759 -761 0
1 762 -712 0
1 762 730 0
1 762 754 0
1 -762 696 0
1 -757 -763 0
1 757 725 0
1 757 699 0
1 -764 765 0
1 -756 -766 0
1 -756 767 0
1 756 754 0
1 715 -761 0
1 768 758 0
1 -768 -769 0
1 -769 770 0
1 760 725 0
1 760 727 0
1 -771 772 0
1 771 733 0
1 -726 -718 0
1 726 732 0
1 770 -773 0
1 773 769 0
1 -772 774 0
1 772 634 0
1 -775 771 0
1 775 -725 0
1 -775 707 0
1 731 -723 0
1 -731 776 0
1 774 777 0
1 -774 -776 0
1 -778 779 0
1 -778 -780 0
1 -781 -782 0
1 783 -756 0
1 -783 751 0
1 783 -753 0
1 767 783 0
1 767 -755 0
1 766 725 0
1 -766 784 0
1 -766 -756 0
1 -765 762 0
1 -765 763 0
1 -785 784 0
1 -785 -761 0
1 785 786 0
1 787 -788 0
1 -784 691 0
1 -789 765 0
1 -790 791 0
1 792 793 0
1 -792 -790 0
1 -794 -795 0
1 794 -796 0
1 -797 791 0
1 -795 762 0
1 788 785 0
1 798 -756 0
1 798 -790 0
